c read Graph
c width = 115
c time = 68 ms
c width = 11
c time = 125 ms
c width = 10
c time = 148 ms
c width = 9
c time = 192 ms
c width = 8
c time = 4469 ms
c width = 8
c time = 5014 ms
s td 120 9 128
b 1 1 2 17
b 2 2 3 17 18
b 3 14 15 31 32
b 4 3 17 18 33
b 5 14 31 32 48
b 6 81 97 98 114
b 7 96 111 112 127
b 8 81 98 114 115
b 9 96 111 126 127
b 10 3 4 18 19 33
b 11 4 5 18 19 20 33
b 12 5 6 18 19 20 21 33
b 13 6 7 18 19 20 21 22 33
b 14 7 8 18 19 20 21 22 23 33
b 15 8 18 19 20 21 22 23 33 34
b 16 8 19 20 21 22 23 33 34 35
b 17 8 20 21 22 23 33 34 35 36
b 18 8 21 22 23 33 34 35 36 37
b 19 8 22 23 33 34 35 36 37 38
b 20 8 23 33 34 35 36 37 38 49
b 21 8 23 34 35 36 37 38 49 50
b 22 8 23 35 36 37 38 49 50 51
b 23 8 23 36 37 38 49 50 51 52
b 24 8 23 37 38 49 50 51 52 53
b 25 8 23 38 49 50 51 52 53 65
b 26 8 23 38 50 51 52 53 65 66
b 27 8 23 38 51 52 53 65 66 67
b 28 8 23 38 52 53 65 66 67 68
b 29 8 23 38 53 65 66 67 68 81
b 30 8 23 38 53 66 67 68 81 82
b 31 8 23 38 53 67 68 81 82 83
b 32 8 23 38 53 68 81 82 83 98
b 33 8 23 38 53 68 81 83 98 115
b 34 8 23 38 53 68 83 98 99 115
b 35 8 23 38 53 68 83 84 99 115
b 36 8 23 38 53 68 69 84 99 115
b 37 8 23 38 53 54 69 84 99 115
b 38 8 23 38 39 54 69 84 99 115
b 39 8 23 24 39 54 69 84 99 115
b 40 8 9 24 39 54 69 84 99 115
b 41 9 24 39 54 69 84 99 100 115
b 42 9 24 39 54 69 84 85 100 115
b 43 9 24 39 54 69 70 85 100 115
b 44 9 24 39 54 55 70 85 100 115
b 45 9 24 39 40 55 70 85 100 115
b 46 9 24 25 40 55 70 85 100 115
b 47 9 25 40 55 70 85 100 115 116
b 48 9 25 40 55 70 85 100 101 116
b 49 9 25 40 55 70 85 86 101 116
b 50 9 25 40 55 70 71 86 101 116
b 51 9 25 40 55 56 71 86 101 116
b 52 9 25 40 41 56 71 86 101 116
b 53 9 25 26 41 56 71 86 101 116
b 54 9 11 26 41 56 71 86 101 116
b 55 11 26 41 56 71 86 101 116 117
b 56 11 26 41 56 71 86 101 102 117
b 57 11 26 41 56 71 86 87 102 117
b 58 11 26 41 56 71 72 87 102 117
b 59 11 26 41 56 57 72 87 102 117
b 60 11 26 41 42 57 72 87 102 117
b 61 11 26 42 57 72 87 102 117 118
b 62 11 26 42 57 72 87 102 103 118
b 63 11 26 42 57 72 87 88 103 118
b 64 11 26 42 57 72 73 88 103 118
b 65 11 26 42 57 58 73 88 103 118
b 66 11 26 42 43 58 73 88 103 118
b 67 11 26 28 43 58 73 88 103 118
b 68 11 13 28 43 58 73 88 103 118
b 69 13 28 43 58 73 88 103 118 119
b 70 13 28 43 58 73 88 103 104 119
b 71 13 28 43 58 73 88 89 104 119
b 72 13 28 43 58 73 74 89 104 119
b 73 13 28 43 58 59 74 89 104 119
b 74 13 28 43 59 74 89 104 119 120
b 75 13 28 43 59 74 89 104 105 120
b 76 13 28 43 59 74 89 90 105 120
b 77 13 28 43 59 74 75 90 105 120
b 78 13 28 43 59 60 75 90 105 120
b 79 13 28 43 45 60 75 90 105 120
b 80 13 28 45 60 75 90 105 120 121
b 81 13 28 45 60 75 90 105 106 121
b 82 13 28 45 60 75 90 91 106 121
b 83 13 28 45 60 75 76 91 106 121
b 84 13 28 45 60 76 91 106 121 122
b 85 13 28 45 60 76 91 106 107 122
b 86 13 28 45 60 76 91 92 107 122
b 87 13 28 45 60 76 77 92 107 122
b 88 13 28 45 60 62 77 92 107 122
b 89 13 28 45 62 77 92 107 122 123
b 90 13 28 45 62 77 92 107 123 124
b 91 13 28 45 62 77 92 107 109 124
b 92 13 28 45 62 77 92 93 109 124
b 93 13 28 45 62 77 93 94 109 124
b 94 13 28 45 62 77 79 94 109 124
b 95 13 28 45 62 64 79 94 109 124
b 96 64 79 94 109 124 126
b 97 92 107 108 109 124
b 98 62 77 78 79 94
b 99 109 124 125 126
b 100 64 79 94 96 109 126
b 101 64 79 80 96
b 102 79 94 96 109 110 126
b 103 79 94 95 96 110 126
b 104 95 96 110 111 126
b 105 13 28 45 47 62 64 79
b 106 13 28 30 45 47 62 64
b 107 30 45 46 47 62
b 108 13 28 29 30 45
b 109 13 30 47 48 64
b 110 13 14 30 47 48
b 111 14 30 31 47 48
b 112 47 62 63 64 79
b 113 45 60 61 62 77
b 114 28 43 44 45 60
b 115 9 10 11 26
b 116 11 12 13 28
b 117 11 26 27 28 43
b 118 112 127 128
b 119 97 113 114
b 120 15 16 32
1 2
2 4
3 120
3 5
4 10
5 111
6 119
6 8
7 118
7 9
8 33
9 104
10 11
11 12
12 13
13 14
14 15
15 16
16 17
17 18
18 19
19 20
20 21
21 22
22 23
23 24
24 25
25 26
26 27
27 28
28 29
29 30
30 31
31 32
32 33
33 34
34 35
35 36
36 37
37 38
38 39
39 40
40 41
41 42
42 43
43 44
44 45
45 46
46 47
47 48
48 49
49 50
50 51
51 52
52 53
53 54
54 115
54 55
55 56
56 57
57 58
58 59
59 60
60 61
61 62
62 63
63 64
64 65
65 66
66 67
67 117
67 68
68 116
68 69
69 70
70 71
71 72
72 73
73 74
74 75
75 76
76 77
77 78
78 79
79 114
79 80
80 81
81 82
82 83
83 84
84 85
85 86
86 87
87 88
88 113
88 89
89 90
90 91
91 97
91 92
92 93
93 94
94 98
94 95
95 105
95 96
96 100
96 99
100 101
100 102
102 103
103 104
105 112
105 106
106 109
106 108
106 107
109 110
110 111
